32	4
10	10	10	10
0	0	0	0	0	7	6	2	3	4	10	13	14
6	1	0	0	1	3	7	8	11
3	4	4	5	7	2	5	9
2	5	0	3	0	3	7	9	22
6	5	5	5	2	4	11	18	21	22
1	5	10	7	10	3	8	18	21
6	8	5	5	3	3	12	18	21
3	4	1	2	1	3	15	17	22
9	2	5	5	7	3	15	17	21
4	3	4	5	2	3	15	17	21
7	1	5	3	5	1	12
9	5	4	4	0	2	15	17
8	7	5	5	5	2	15	17
10	3	2	0	1	2	15	17
2	5	4	3	2	4	16	19	24	29
3	5	4	5	6	4	20	26	28	31
6	5	4	4	7	5	23	24	26	28	29
4	0	2	3	1	4	23	26	27	28
10	3	3	5	3	3	25	26	30
8	2	3	5	5	2	23	27
9	5	3	4	0	2	25	27
8	5	6	6	10	2	24	29
5	6	6	5	4	1	25
1	4	4	0	2	1	25
7	3	4	4	5	1	32
4	1	6	6	3	1	32
4	4	4	4	6	1	32
9	2	2	1	0	1	32
8	5	6	6	4	1	32
2	3	4	1	4	1	32
10	5	0	4	5	1	32
0	0	0	0	0	0
